15 4 
2248	2248	2248	2248	
849	714	745	
24	724	741	
20	831	886	
25	875	891	
727	344	362	
988	765	801	
427	900	920	
163	153	167	
364	308	336	
497	183	200	
520	734	738	
15	948	1032	
550	940	977	
402	329	350	
345	245	245	
